1536 778
176 2263
1695 1783
1869 2459
1456 2273
2328 721
1742 2239
234 933
1708 1406
1940 67
1506 349
175 1751
2227 507
343 1815
1769 1973
210 1026
205 227
988 669
1007 453
276 1129
2021 1529
790 746
1315 649
362 768
894 1257
630 381
308 437
1650 575
1286 2063
2126 578
835 1394
2168 208
1054 1703
2391 789
1614 711
1778 477
2000 578
481 655
304 2466
1589 22
900 1152
2144 1019
251 2049
1592 194
116 20
518 2245
538 1554
82 1866
1409 1510
522 1834
